CPLEX 12.6.2.0: mipgap=0.01
mipdisplay=3
MIP Presolve eliminated 24 rows and 12 columns.
Reduced MIP has 504 rows, 600 columns, and 1884 nonzeros.
Reduced MIP has 300 binaries, 0 generals, 0 SOSs, and 0 indicators.
Found incumbent of value 216.000000 after 0.03 sec. (14.31 ticks)
Probing time = 0.00 sec. (0.51 ticks)
MIP Presolve modified 432 coefficients.
Reduced MIP has 504 rows, 600 columns, and 1884 nonzeros.
Reduced MIP has 300 binaries, 0 generals, 0 SOSs, and 0 indicators.
Probing time = 0.00 sec. (0.48 ticks)
Clique table members: 156.
MIP emphasis: balance optimality and feasibility.
MIP search method: dynamic search.
Parallel mode: deterministic, using up to 4 threads.
Root relaxation solution time = 0.00 sec. (2.06 ticks)

        Nodes                                         Cuts/
   Node  Left     Objective  IInf  Best Integer    Best Bound    ItCnt     Gap

*     0+    0                          216.0000        0.0000           100.00%
Found incumbent of value 216.000000 after 0.03 sec. (19.33 ticks)
*     0+    0                           72.0000        0.0000           100.00%
Found incumbent of value 72.000000 after 0.03 sec. (19.33 ticks)
*     0+    0                           12.0000        0.0000           100.00%
Found incumbent of value 12.000000 after 0.03 sec. (19.34 ticks)
      0     0        0.0000    80       12.0000        0.0000       98  100.00%
      0     0        0.0000    79       12.0000      Cuts: 89      149  100.00%
      0     0        0.0000    90       12.0000      Cuts: 44      219  100.00%
      0     0        0.0000    82       12.0000      Cuts: 10      226  100.00%
      0     0        0.0000    78       12.0000       Cuts: 3      228  100.00%
      0     0        0.0000    75       12.0000       Cuts: 2      229  100.00%
      0     2        0.0000    75       12.0000        0.0000      229  100.00%
Elapsed time = 0.17 sec. (79.55 ticks, tree = 0.00 MB)
*   267+  259                           11.0000        0.0000           100.00%
                                                    Covers: 6                  
Found incumbent of value 11.000000 after 0.23 sec. (125.63 ticks)
*   567+  511                            9.0000        0.0000           100.00%
                                                    Covers: 7                  
Found incumbent of value 9.000000 after 0.30 sec. (153.66 ticks)

<BREAK> (cplex)

GUB cover cuts applied:  3
Clique cuts applied:  9
Cover cuts applied:  4
Flow cuts applied:  1
Mixed integer rounding cuts applied:  3
Lift and project cuts applied:  1
Gomory fractional cuts applied:  7

Root node processing (before b&c):
  Real time             =    0.17 sec. (79.21 ticks)
Parallel b&c, 4 threads:
  Real time             =    0.74 sec. (433.13 ticks)
  Sync time (average)   =    0.09 sec.
  Wait time (average)   =    0.09 sec.
                          ------------
Total (root+branch&cut) =    0.91 sec. (512.35 ticks)
CPLEX 12.6.2.0: aborted, integer solution exists; objective 9
15360 MIP simplex iterations
2484 branch-and-bound nodes
absmipgap = 8.69102, relmipgap = 0.965668
No basis.
CB :=
1 2   1
1 3   0
1 4   1
2 1   1
2 3   1
2 4   0
3 1   0
3 2   1
3 4   1
4 1   1
4 2   1
4 3   1
;

